unsat
( c0
  c1
  c10
  c100
  c1000
  c1001
  c1003
  c1004
  c1005
  c1006
  c1007
  c1009
  c101
  c1010
  c1012
  c1013
  c1014
  c1015
  c1016
  c1017
  c1018
  c1019
  c102
  c1020
  c1021
  c1022
  c1023
  c1024
  c1025
  c1026
  c1027
  c1028
  c1029
  c103
  c1030
  c1031
  c1032
  c1033
  c1034
  c1035
  c1036
  c1037
  c1038
  c1039
  c104
  c1040
  c1041
  c1042
  c1043
  c1044
  c1045
  c1046
  c1047
  c1048
  c1049
  c105
  c1050
  c1051
  c1052
  c1053
  c1054
  c1055
  c106
  c1065
  c1066
  c1067
  c1068
  c1069
  c107
  c1071
  c1072
  c1073
  c1074
  c1076
  c1077
  c108
  c1081
  c1082
  c1083
  c1084
  c1085
  c1087
  c1088
  c1089
  c109
  c1090
  c1092
  c1093
  c1094
  c1095
  c1096
  c1098
  c1099
  c11
  c110
  c1101
  c1102
  c1103
  c1104
  c1105
  c1106
  c1107
  c1108
  c1109
  c111
  c1110
  c1111
  c1112
  c1113
  c1114
  c1115
  c1116
  c1117
  c1118
  c1119
  c112
  c1120
  c1121
  c1122
  c1123
  c1124
  c1125
  c1126
  c1127
  c1128
  c1129
  c113
  c1130
  c1131
  c1132
  c1133
  c1134
  c1135
  c1136
  c1137
  c1138
  c1139
  c114
  c1140
  c1141
  c1142
  c1143
  c1144
  c115
  c1154
  c116
  c117
  c118
  c119
  c12
  c120
  c121
  c122
  c123
  c124
  c125
  c1253
  c126
  c1268
  c127
  c1277
  c1278
  c1279
  c128
  c1280
  c1281
  c1282
  c1283
  c1284
  c1285
  c1286
  c1287
  c1288
  c1289
  c129
  c1290
  c1291
  c1292
  c1293
  c1294
  c1295
  c1296
  c1297
  c1298
  c1299
  c13
  c130
  c1300
  c1301
  c1302
  c1303
  c1304
  c1305
  c1306
  c1307
  c1308
  c1309
  c131
  c1310
  c1311
  c1312
  c1313
  c1314
  c1315
  c1316
  c1317
  c1318
  c1319
  c132
  c1320
  c1321
  c1322
  c1323
  c1324
  c1325
  c133
  c134
  c135
  c136
  c137
  c138
  c1382
  c1383
  c1384
  c1385
  c1386
  c1387
  c1388
  c1389
  c139
  c1390
  c1391
  c1392
  c1393
  c1394
  c1395
  c1396
  c1397
  c1398
  c1399
  c14
  c140
  c1407
  c1408
  c1409
  c141
  c1410
  c1411
  c1412
  c1413
  c1415
  c1416
  c1417
  c1418
  c1419
  c142
  c1420
  c1421
  c1422
  c1423
  c1424
  c1425
  c1426
  c1427
  c1428
  c1429
  c143
  c1430
  c1431
  c1434
  c1435
  c1438
  c1439
  c144
  c1442
  c1443
  c1446
  c1447
  c145
  c1450
  c1451
  c1454
  c1455
  c1458
  c1459
  c146
  c1461
  c1462
  c1464
  c1465
  c1467
  c1468
  c147
  c1470
  c1471
  c1473
  c1474
  c1476
  c1477
  c1479
  c148
  c1480
  c1485
  c1486
  c149
  c1491
  c1492
  c1497
  c1498
  c15
  c150
  c1503
  c1504
  c1509
  c151
  c1510
  c1515
  c1516
  c152
  c1521
  c1522
  c1527
  c1528
  c153
  c1533
  c1534
  c1539
  c154
  c1540
  c1545
  c1546
  c155
  c1551
  c1552
  c1557
  c1558
  c156
  c1563
  c1564
  c1565
  c1569
  c157
  c1570
  c1571
  c1575
  c1576
  c1577
  c158
  c1581
  c1582
  c1583
  c1587
  c1588
  c1589
  c159
  c1593
  c1594
  c1595
  c1599
  c16
  c160
  c1600
  c1601
  c1605
  c1606
  c1609
  c161
  c1610
  c1613
  c1614
  c1617
  c1618
  c162
  c1621
  c1622
  c1625
  c1626
  c1629
  c163
  c1630
  c1633
  c1634
  c1635
  c1636
  c1637
  c1638
  c1639
  c164
  c1641
  c1642
  c1645
  c1646
  c1649
  c165
  c1650
  c1655
  c1658
  c166
  c1661
  c1664
  c1665
  c1666
  c1667
  c1668
  c1669
  c167
  c1670
  c1671
  c1672
  c1673
  c1674
  c1675
  c1676
  c1677
  c1678
  c1679
  c168
  c1680
  c169
  c17
  c170
  c171
  c172
  c173
  c174
  c175
  c176
  c177
  c178
  c179
  c18
  c180
  c181
  c182
  c183
  c184
  c185
  c186
  c187
  c188
  c189
  c19
  c190
  c191
  c192
  c193
  c194
  c195
  c196
  c197
  c198
  c199
  c2
  c20
  c200
  c201
  c202
  c203
  c204
  c205
  c21
  c22
  c23
  c24
  c25
  c26
  c27
  c28
  c29
  c30
  c305
  c31
  c311
  c313
  c314
  c315
  c316
  c317
  c318
  c319
  c32
  c320
  c321
  c322
  c323
  c325
  c326
  c327
  c328
  c329
  c33
  c330
  c331
  c332
  c333
  c334
  c335
  c336
  c337
  c338
  c339
  c34
  c35
  c354
  c355
  c356
  c357
  c358
  c359
  c36
  c360
  c361
  c362
  c363
  c364
  c365
  c366
  c367
  c368
  c369
  c37
  c370
  c371
  c372
  c373
  c374
  c38
  c39
  c4
  c40
  c41
  c410
  c411
  c412
  c413
  c414
  c415
  c416
  c417
  c418
  c419
  c42
  c420
  c421
  c422
  c423
  c43
  c44
  c45
  c459
  c46
  c460
  c461
  c462
  c463
  c464
  c465
  c467
  c469
  c47
  c470
  c471
  c472
  c473
  c474
  c475
  c476
  c477
  c478
  c479
  c48
  c480
  c481
  c487
  c488
  c489
  c49
  c490
  c491
  c492
  c493
  c494
  c495
  c496
  c497
  c498
  c499
  c5
  c50
  c500
  c501
  c502
  c503
  c504
  c505
  c506
  c507
  c508
  c509
  c51
  c510
  c511
  c512
  c513
  c514
  c515
  c518
  c52
  c523
  c524
  c525
  c526
  c527
  c528
  c529
  c53
  c530
  c531
  c532
  c533
  c534
  c535
  c537
  c538
  c539
  c54
  c540
  c542
  c543
  c544
  c545
  c547
  c548
  c549
  c55
  c550
  c551
  c553
  c554
  c555
  c556
  c558
  c559
  c56
  c560
  c561
  c562
  c564
  c565
  c567
  c568
  c569
  c57
  c570
  c571
  c572
  c573
  c574
  c575
  c576
  c577
  c578
  c579
  c58
  c580
  c581
  c582
  c583
  c584
  c585
  c586
  c587
  c588
  c589
  c59
  c590
  c591
  c592
  c593
  c594
  c595
  c596
  c597
  c598
  c599
  c6
  c60
  c600
  c601
  c602
  c603
  c604
  c605
  c606
  c607
  c608
  c609
  c61
  c610
  c62
  c620
  c621
  c622
  c623
  c624
  c626
  c627
  c628
  c629
  c63
  c631
  c632
  c636
  c637
  c638
  c639
  c64
  c640
  c642
  c643
  c644
  c645
  c647
  c648
  c649
  c65
  c650
  c651
  c653
  c654
  c656
  c657
  c658
  c659
  c66
  c660
  c661
  c662
  c663
  c664
  c665
  c666
  c667
  c668
  c669
  c67
  c670
  c671
  c672
  c673
  c674
  c675
  c676
  c677
  c678
  c679
  c68
  c680
  c681
  c682
  c683
  c684
  c685
  c686
  c687
  c688
  c689
  c69
  c690
  c691
  c692
  c693
  c694
  c695
  c696
  c697
  c698
  c699
  c7
  c70
  c709
  c71
  c710
  c711
  c712
  c713
  c715
  c716
  c717
  c718
  c72
  c720
  c721
  c725
  c726
  c727
  c728
  c729
  c73
  c731
  c732
  c733
  c734
  c736
  c737
  c738
  c739
  c74
  c740
  c742
  c743
  c745
  c746
  c747
  c748
  c749
  c75
  c750
  c751
  c752
  c753
  c754
  c755
  c756
  c757
  c758
  c759
  c76
  c760
  c761
  c762
  c763
  c764
  c765
  c766
  c767
  c768
  c769
  c77
  c770
  c771
  c772
  c773
  c774
  c775
  c776
  c777
  c778
  c779
  c78
  c780
  c781
  c782
  c783
  c784
  c785
  c786
  c787
  c788
  c79
  c798
  c799
  c8
  c80
  c800
  c801
  c802
  c804
  c805
  c806
  c807
  c809
  c81
  c810
  c814
  c815
  c816
  c817
  c818
  c82
  c820
  c821
  c822
  c823
  c825
  c826
  c827
  c828
  c829
  c83
  c831
  c832
  c834
  c835
  c836
  c837
  c838
  c839
  c84
  c840
  c841
  c842
  c843
  c844
  c845
  c846
  c847
  c848
  c849
  c85
  c850
  c851
  c852
  c853
  c854
  c855
  c856
  c857
  c858
  c859
  c86
  c860
  c861
  c862
  c863
  c864
  c865
  c866
  c867
  c868
  c869
  c87
  c870
  c871
  c872
  c873
  c874
  c875
  c876
  c877
  c88
  c887
  c888
  c889
  c89
  c890
  c891
  c893
  c894
  c895
  c896
  c898
  c899
  c9
  c90
  c903
  c904
  c905
  c906
  c907
  c909
  c91
  c910
  c911
  c912
  c914
  c915
  c916
  c917
  c918
  c92
  c920
  c921
  c923
  c924
  c925
  c926
  c927
  c928
  c929
  c93
  c930
  c931
  c932
  c933
  c934
  c935
  c936
  c937
  c938
  c939
  c94
  c940
  c941
  c942
  c943
  c944
  c945
  c946
  c947
  c948
  c949
  c95
  c950
  c951
  c952
  c953
  c954
  c955
  c956
  c957
  c958
  c959
  c96
  c960
  c961
  c962
  c963
  c964
  c965
  c966
  c97
  c976
  c977
  c978
  c979
  c98
  c980
  c982
  c983
  c984
  c985
  c987
  c988
  c99
  c992
  c993
  c994
  c995
  c996
  c998
  c999 )
